# bulk Si via Tersoff

units		metal
atom_style	atomic

lattice		diamond 5.431
region		box block 0 20 0 20 0 10
create_box	1 box
create_atoms	1 box

pair_style	lj/cut 2.5
pair_coeff	* * 1 1
mass            1 12.0107  

velocity	all create 1000.0 376847 loop geom

neighbor	1.0 bin
neigh_modify    delay 5 every 1

fix		1 all nve

timestep	0.001

# thermo 10
# dump 1 all custom 10 dump.data id type x y z vx vy vz
run		1000
