# HARDCODED variables for now
variable temp equal 100.0 # Kelvin                  
variable damp equal 1.0 # ps                        

# SWITCH: read_data || read_restart
variable restart_file index None
if "${restart_file}!=None" then "jump SELF setup_from_restart_file"

####################################
### --- Setup from read_data --- ###
####################################
print "Setting up simulation from read_data: ${config_data}.txt"

# --- Basics --- # 
units metal
newton on #newtons 3rd law for pairs
boundary p p m  
atom_style atomic # coarse-grain liquids, solids, metals

# --- Read files --- #
read_data ${config_data}.txt extra/atom/types 1  # sheet and substrate (1 extra type for virtuel atom)
include ${config_data}_info.in                   # import variables

# --- Regions and groups --- #
variable eps equal 0.1

# Sheet 
region sheet_region block INF INF $(v_pullblock_yhi+v_eps) $(v_pullblock_ylo-v_eps) ${pullblock_zlo} INF
region full_sheet_region block INF INF INF INF ${pullblock_zlo} INF
group  sheet region sheet_region
group  full_sheet region full_sheet_region 

# Pullblocks
region PB_ylow_region  block INF INF INF $(v_pullblock_yhi+v_eps) ${pullblock_zlo} INF
region PB_yhigh_region block INF INF $(v_pullblock_ylo-v_eps) INF ${pullblock_zlo} INF
group  PB_ylow region PB_ylow_region
group  PB_yhigh region PB_yhigh_region
group  PB_tot union PB_ylow PB_yhigh

# Substrate
region substrate_freeze_region block INF INF INF INF INF ${substrate_freeze_zhi}
region substrate_contact_region block INF INF INF INF ${substrate_contact_zlo} ${pullblock_zlo}
group  substrate type 2
group  substrate_freeze region substrate_freeze_region
group  substrate_contact region substrate_contact_region

# Moving atoms
group free_atoms subtract all PB_tot substrate_freeze 
group semifree_atoms subtract all substrate_freeze 

# --- Dynamics --- #            
mass 1 12.0107  # C
mass 2 28.0855  # Si
mass 3 1.0      # Virtuel atom
velocity free_atoms create ${temp} 5432373 dist gaussian


jump SELF common_settings


#######################################
### --- Setup from read_restart --- ###
#######################################

label setup_from_restart_file
print "Setting up simulation from read_restart: ${restart_file}"

# --- Read restart file --- #
read_restart ${restart_file}
include ${root}/${config_data}_info.in                  


###############################
### --- Common settings --- ###
###############################

label common_settings

neighbor            0.5 bin
neigh_modify        delay 0 every 1 one 10000


# # Potentials: C-C: Airebo, C-Si: LJ, Si-Si: SW
# pair_style hybrid sw lj/cut 8.15 airebo 6.4 1 1 # lj_cutoff = 2.5*sigma 
# pair_coeff * * airebo ${root}/CH.airebo C NULL NULL    # Sheet C-C
# pair_coeff 1 2 lj/cut 0.008909 3.26                    # Interaction C-Si 
# pair_coeff * * sw ${root}/si.sw NULL Si NULL           # Substrate Si-Si
# pair_coeff * 3  lj/cut 0.0 0.0 

# Potentials: C-C: Tersoff, C-Si: LJ, Si-Si: SW
pair_style hybrid sw lj/cut 8.15 tersoff
pair_coeff * * tersoff ${root}/C.tersoff C NULL NULL   # Sheet C-C
pair_coeff 1 2 lj/cut 0.008909 3.26                    # Interaction C-Si 
pair_coeff * * sw ${root}/si.sw NULL Si NULL           # Substrate Si-Si
pair_coeff * 3  lj/cut 0.0 0.0 

# # Potentials: C-C: Tersoff, C-Si: LJ, Si-Si: SW
# pair_style hybrid sw/kk tersoff/kk lj/cut/kk 8.15 
# pair_coeff * * sw/kk ${root}/si.sw Si Si Si           # Substrate Si-Si
# pair_coeff * * tersoff/kk ${root}/C.tersoff C C C           # Sheet C-C
# pair_coeff 1 2 lj/cut/kk 0.008909 3.26                    # Interaction C-Si 
# pair_coeff * 3  lj/cut/kk 0.0 0.0 

# # Potentials: C-C: Tersoff, C-Si: LJ, Si-Si: SW
# pair_style hybrid sw tersoff lj/cut 8.15 
# pair_coeff * * sw ${root}/si.sw Si Si Si           # Substrate Si-Si
# pair_coeff * * tersoff ${root}/C.tersoff C C C           # Sheet C-C
# pair_coeff 1 2 lj/cut 0.008909 3.26                    # Interaction C-Si 
# pair_coeff * 3 lj/cut 0.0 0.0 

timestep $(v_dt)
fix nve semifree_atoms nve # (microcanonical) 
fix nvt semifree_atoms langevin ${temp} ${temp} ${damp} 48279 # (canonical)
fix 2 all balance 1000 1.05 shift xy 10 1.05 # balance number of particles computed on each processor 
fix PB_xyz_ave PB_tot aveforce 0 0 0 # Average force (every atom feels same force vector)


# --- Convertion: SI to metal --- #
variable N_to_eV_over_ang equal 6.24150907e8    # force: N -> eV/Å
variable m_to_ang equal 1e10                    # distance: m -> Å
variable s_to_ps equal 1e12                     # time: s -> ps


# ---------- Computes ---------- #
## - Sheet - ##
# Full sheet
compute sheet_COM full_sheet com            # Center of mass
compute sheet_fz full_sheet reduce ave fz   # Average z-force

# Inner sheet 
compute sheet_fx sheet reduce sum fx        # Total force x
compute sheet_fy sheet reduce sum fy        # Total force y
compute coord sheet coord/atom cutoff 2.7   # Coordination number
compute peratom sheet stress/atom NULL      # stress field
variable stress_atom atom sqrt(c_peratom[1]*c_peratom[1]+c_peratom[2]*c_peratom[2]+c_peratom[3]*c_peratom[3]) # Stress norm (xx, yy, zz)
# ^^What about shear stress directions?


## - Pullblocks - ##
compute PB_ylow_ymax PB_ylow reduce max y   # Lower y-limit for sheet
compute PB_yhigh_ymin PB_yhigh reduce min y # Upper y-limit for sheet
compute PB_ylow_com PB_ylow com             # Center of mass PB_ylow
compute PB_yhigh_com PB_yhigh com           # Center of mass PB_yhigh

## -- Substrate -- ##
compute substrate_zhigh substrate reduce max z # Max z-val of substrate

## Interactions ##
compute Ff substrate group/group full_sheet # friction forces
compute Ff_sheet substrate group/group sheet # friction forces
compute Ff_PB substrate group/group PB_tot # friction forces

## - Activate computes - ## 
thermo_style custom c_sheet_fz c_PB_ylow_ymax c_PB_yhigh_ymin c_substrate_zhigh c_PB_ylow_com[2] c_PB_yhigh_com[2] c_sheet_COM[3] 
run 0 # activate compute

# ---------- Derived variables ---------- #
## -- Seperation -- ##
variable sub_sheet_seperation equal c_sheet_COM[3]-c_substrate_zhigh  # seperation between substrate max and COM of sheet

## -- Force on PB -- ##
variable move_force_x equal c_sheet_fx+c_Ff[1]
variable move_force_y equal c_sheet_fy+c_Ff[2]
variable move_force_xy_norm equal sqrt(v_move_force_x^2+v_move_force_x^2)  

## -- Stretch -- ##
# variable S0 equal c_PB_yhigh_ymin-c_PB_ylow_ymax    # start len of inner sheet
variable S0 equal v_pullblock_ylo-v_pullblock_yhi   # start len of inner sheet
variable S_len equal c_PB_yhigh_ymin-c_PB_ylow_ymax # Updated len of inner sheet
variable stretch_pct equal (v_S_len-v_S0)/v_S0  # Updated stretch pct
variable stretch_speed equal v_stretch_speed_pct*v_S0 

## -- Drag -- ##
variable dir_norm equal $(sqrt(v_drag_dir_x^2+v_drag_dir_y^2))


# ---------- Output ---------- #
thermo 1000
variable dump_freq equal 1000 


# Add contact bonds <------------ !!!
dump 1 all custom $(v_dump_freq) system_${out_ext}.data id type x y z vx vy vz v_stress_atom
dump 2 full_sheet custom $(v_dump_freq) full_sheet_${out_ext}.data id type x y z
# dump 3 substrate_contact custom $(v_dump_freq) stretch_substrate_contact_${out_ext}.data id type x y z
fix coord_out sheet ave/histo 1 100 100 -0.5 5.5 6 c_coord mode vector file sheet_${out_ext}_chist.txt



