# Setup system
include ${root}/setup_sim.in

# ----------  Write restart files ---------- #
variable num_stretch_files index 0
if "${num_stretch_files}<=1" then "jump SELF no_restart"

variable restart_freq equal floor(v_stretch_steps/(v_num_stretch_files-1))
variable       stride equal stride(v_relax_steps,$(v_relax_steps+v_stretch_steps+v_restart_freq),v_restart_freq)
restart        v_stride stretch_*_restart


label no_restart

# ----------  Relax sheet ---------- #
print "--> Relax: $(v_relax_steps) timesteps, $(v_relax_steps*dt) ps"
thermo_style custom step time cpu cpuremain temp v_stretch_pct v_sheet_bond_pct v_full_sheet_bond_pct
variable S0 equal c_PB_yhigh_ymin-c_PB_ylow_ymax # Force S0 to current length
run $(v_relax_steps-1)

# Lock S0 after relaxing and export S0 info via y-pos of tmp type 3 atom
variable S0 equal $(c_PB_yhigh_ymin-c_PB_ylow_ymax) 
if  "${num_stretch_files}>=1" then "create_atoms 3 single 0 $(v_S0) 0" &
"group S0_info type 3"
run 1


# ---------- Stretch sheet ---------- #
# Update fixes
unfix nve
unfix nvt
fix nve free_atoms nve
fix nvt free_atoms langevin ${temp} ${temp} ${damp} 48279

# Update stretch speed in case of changes S0 (not sure if this is possible)
variable stretch_speed equal v_stretch_speed_pct*v_S0 
fix ylow_move  PB_ylow move linear 0 $(-v_stretch_speed/2) NULL units box
fix yhigh_move PB_yhigh move linear 0 $(v_stretch_speed/2) NULL units box

print "--> Stretch: $(v_stretch_steps) timesteps, $(v_stretch_steps*dt) ps"
run $(v_stretch_steps)
restart 0

# Unfix moves (relevant if continued directly)
unfix ylow_move
unfix yhigh_move
velocity PB_tot set 0 0 0


