units metal
newton on #newtons 3rd law for pairs

boundary m m m # m: non-periodic and shrink-wrapped with a minimum value
atom_style atomic # coarse-grain liquids, solids, metals

## --- Create Lattice --- ##
# Hexagonal graphene lattice
# first number: scaling factor
# a1, a2, a3: unit vectors
# basis: basis atoms to put in lattice
lattice custom 2.419 &
        a1    0                 1.0     0     &
        a2    $(sqrt(3)/2)      0.5     0     &
        a3    $(1/(2*sqrt(3)))  0.5     0.83  &
        basis 0                 0       0     &
        basis $(1/3)            $(1/3)  0.0

region simreg block 0 2 0 2 0 0.5  # xlo xhi ylo yhi zlo zhi
create_box 2 simreg #<-------- WHY 2 HERE? ------<
create_atoms 1 box basis 1 1

## --- Make cuts --- ##

# include cut_pattern.in #--> atom_idx

# label atom_loop
# label inner_loop
# variable i loop 2 # loop over 2D pos

# print ${atom_idx}
# next atom_idx
# region x y 
# next i

# jump SELF inner_loop
# print " "
# jump SELF atom_loop

#label       loop
#variable    a loop 5
#print       "A = $a"
##if          "$a > 2" then "jump SELF break"
#next        a
#jump        SELF loop
#label       break
#variable    a delete


## --- Dynamics --- ##
variable temp equal 5.0

mass * 12.0107 # "*": all types, [grams/mole]
velocity all create ${temp} 5432373 dist gaussian

neighbor            0.5 bin
neigh_modify        delay 0 every 1

pair_style          airebo 6.4 1 1
pair_coeff          * * CH.airebo C H

# fix                 nve all nve # (microcanonical)
timestep            0.0005

thermo              10


dump 10 all custom 10 sheet.data id type x y z vx vy vz


write_data lammps_save_file
run 1







# run as: lmp_serial < graphene_sheet.in
