units metal
newton on 
boundary p p m  
atom_style atomic 

# Graphene lattice
lattice custom 2.419 &
        a1    0                 1.0     0     &
        a2    $(sqrt(3)/2)      0.5     0     &
        a3    $(1/(2*sqrt(3)))  0.5     0.83  &
        basis 0                 0       0     &
        basis $(1/3)            $(1/3)  0.0

# Simulation box
region simreg1 block 0 20 0 20 0 0.5  
region simreg2 block 0 20 0 20 4.5 5  
region merge union 2 simreg1 simreg2

create_box 2 merge 
create_atoms 1 region simreg1 basis 1 1
create_atoms 2 region simreg2 basis 2 2


# Dynamics            
variable temp equal 50.0 # Kelvin                  
mass 1 12.0107  
mass 2 12.0107 

velocity all create ${temp} 5432373 dist gaussian

pair_style hybrid/kk tersoff/kk lj/cut/kk 2.0 
pair_coeff * * tersoff/kk C.tersoff C NULL # <----The line that causes issues
pair_coeff 1 2 lj/cut/kk 1 1                 
pair_coeff 2 2 lj/cut/kk 1 1                 

timestep 0.001
fix nve all nve 

# Output
thermo 100
dump 1 all custom 10 dump_reproduce.data id type x y z vx vy vz
run 1000
