units metal
newton on #newtons 3rd law for pairs

boundary m m m  

atom_style atomic # coarse-grain liquids, solids, metals
read_data ./lammps_sheet # read lattice from file


#--- Dynamics ---#
variable temp equal 5.0 # Kelvin

mass * 12.0107 # "*": all types, [grams/mole]
velocity all create ${temp} 5432373 dist gaussian

neighbor            0.5 bin
neigh_modify        delay 0 every 1

pair_style          airebo 6.4 1 1  # cutoff LJ_flag TORSION_flag cutoff_min
pair_coeff          * * CH.airebo C # add H ofr hydrogren as2nd particle

fix                 nve all nve # (microcanonical)
timestep            0.0005

thermo              100


# fix 2 all balance 1000 1.05 shift xy 10 1.05 # balance number of particles computed on each processor 
dump 1 all custom 1 sheet.data id type x y z vx vy vz

#---- Stretch ---#

# Define block regions for pulling
variable block_elem equal 2 # block thicknes in terms of matrix columns
variable yscale equal 1.230 # length per column
variable block_thickness equal ${block_elem}*${yscale} # physical length of end blocks
variable eps equal 1e-3 # small number for avoiding spill of the freeze region

variable ylow_top equal ${block_thickness}-${eps} # max y-val of lower block
variable yhigh_bottom equal yhi-${block_thickness}+${eps} # min y val of upper block


region ylow_region block INF INF INF ${ylow_top} INF INF
region yhigh_region block INF INF ${yhigh_bottom} INF INF INF
group  ylow_group region ylow_region
group  yhigh_group region yhigh_region

# Freeze: set velocity and force to zero
velocity ylow_group set 0 0 0
velocity yhigh_group set 0 0 0
fix freeze1 ylow_group setforce 0.0 0.0 0.0
fix freeze2 yhigh_group setforce 0.0 0.0 0.0


# Relax inner part (pattern) of sheet 
# run 200
run  $(floor(0.5/dt)) # [t] = picoseconds


variable strain_speed equal "125*0.01" # define strain/stretch speed



# Release freezes
unfix freeze1
unfix freeze2

# Move block in opposite direction
fix ylow_move ylow_group move linear 0 $(-v_strain_speed/2) 0 units box
fix yhigh_move yhigh_group move linear 0 $(v_strain_speed/2) 0 units box


# run 1000
# run $(floor(3*125/dt/v_strain_speed)) # 60000
run  $(floor(4/dt)) # [t] = picoseconds









#########

# run 100




# run 10


# run as: lmp_serial < graphene_sheet.in
